p cnf 7230 16
803 934 -1442 0
800 949 -1440 0
797 958 -1438 0
794 961 -1436 0
-803 -1443 0
-800 -1441 0
-797 -1439 0
-794 -1437 0
1442 1443 0
1440 1441 0
1438 1439 0
1436 1437 0
-934 -1443 0
-949 -1441 0
-958 -1439 0
-961 -1437 0
